14
0 1 7 7 5 5 6 8 9 9 3 7 6 4 
7 0 1 7 4 3 3 3 5 6 4 9 8 7 
2 6 0 1 5 3 2 7 4 9 2 5 5 7 
2 8 3 0 1 7 6 6 8 4 8 8 8 6 
9 2 2 7 0 1 8 5 5 8 9 9 2 2 
9 6 2 2 2 0 1 6 6 4 4 3 9 2 
2 5 5 2 3 8 0 1 2 5 6 7 2 9 
9 8 5 5 8 8 9 0 1 2 5 8 3 3 
6 7 3 4 5 4 9 7 0 1 9 5 5 4 
7 4 2 9 3 4 2 6 7 0 1 9 6 9 
3 5 3 8 7 4 8 5 6 3 0 1 8 6 
6 5 9 9 9 6 7 5 6 2 6 0 1 4 
9 4 2 2 9 8 9 4 5 2 5 3 0 1 
1 9 6 7 8 5 6 8 8 9 4 5 9 0 
